Version identifier: 22.1.0.0 | 2022-03-09 | 1a383f8ce
CPXPARAM_Threads                                 1
CPXPARAM_MIP_Strategy_VariableSelect             3
CPXPARAM_TimeLimit                               599.99565073600002
Tried aggregator 1 time.
MIP Presolve eliminated 15 rows and 0 columns.
Reduced MIP has 2013 rows, 5020 columns, and 40900 nonzeros.
Reduced MIP has 5020 binaries, 0 generals, 0 SOSs, and 0 indicators.
Presolve time = 0.03 sec. (20.02 ticks)
Probing time = 0.01 sec. (3.34 ticks)
Tried aggregator 1 time.
Detecting symmetries...
Reduced MIP has 2013 rows, 5020 columns, and 40900 nonzeros.
Reduced MIP has 5020 binaries, 0 generals, 0 SOSs, and 0 indicators.
Presolve time = 0.03 sec. (25.21 ticks)
Probing time = 0.01 sec. (3.34 ticks)
Clique table members: 1496.
MIP emphasis: balance optimality and feasibility.
MIP search method: dynamic search.
Parallel mode: none, using 1 thread.
Root relaxation solution time = 0.03 sec. (30.28 ticks)

        Nodes                                         Cuts/
   Node  Left     Objective  IInf  Best Integer    Best Bound    ItCnt     Gap

      0     0        0.0000   289                      0.0000      633         
*     0+    0                            0.0000        0.0000             0.00%
      0     0        cutoff              0.0000        0.0000      633    0.00%
Elapsed time = 0.33 sec. (247.56 ticks, tree = 0.01 MB, solutions = 1)

Root node processing (before b&c):
  Real time             =    0.33 sec. (247.72 ticks)
Sequential b&c:
  Real time             =    0.00 sec. (0.00 ticks)
                          ------------
Total (root+branch&cut) =    0.33 sec. (247.72 ticks)
Version identifier: 22.1.0.0 | 2022-03-09 | 1a383f8ce
CPXPARAM_Threads                                 1
CPXPARAM_MIP_Strategy_VariableSelect             3
CPXPARAM_TimeLimit                               599.63509791800004
Tried aggregator 1 time.
MIP Presolve eliminated 15 rows and 0 columns.
Reduced MIP has 3013 rows, 7520 columns, and 61400 nonzeros.
Reduced MIP has 7520 binaries, 0 generals, 0 SOSs, and 0 indicators.
Presolve time = 0.04 sec. (29.70 ticks)
Probing time = 0.01 sec. (3.88 ticks)
Tried aggregator 1 time.
Detecting symmetries...
Reduced MIP has 3013 rows, 7520 columns, and 61400 nonzeros.
Reduced MIP has 7520 binaries, 0 generals, 0 SOSs, and 0 indicators.
Presolve time = 0.05 sec. (37.56 ticks)
Probing time = 0.01 sec. (3.88 ticks)
Clique table members: 2246.
MIP emphasis: balance optimality and feasibility.
MIP search method: dynamic search.
Parallel mode: none, using 1 thread.
Root relaxation solution time = 0.14 sec. (120.15 ticks)

        Nodes                                         Cuts/
   Node  Left     Objective  IInf  Best Integer    Best Bound    ItCnt     Gap

      0     0        0.0000   727                      0.0000     1476         
*     0+    0                            0.0000        0.0000             0.00%
      0     0        cutoff              0.0000        0.0000     1476    0.00%
Elapsed time = 1.03 sec. (760.70 ticks, tree = 0.01 MB, solutions = 1)

Root node processing (before b&c):
  Real time             =    1.03 sec. (760.93 ticks)
Sequential b&c:
  Real time             =    0.00 sec. (0.00 ticks)
                          ------------
Total (root+branch&cut) =    1.03 sec. (760.93 ticks)
Version identifier: 22.1.0.0 | 2022-03-09 | 1a383f8ce
CPXPARAM_Threads                                 1
CPXPARAM_MIP_Strategy_VariableSelect             3
CPXPARAM_TimeLimit                               598.55965284199999
Tried aggregator 1 time.
MIP Presolve eliminated 15 rows and 0 columns.
Reduced MIP has 3509 rows, 8760 columns, and 71568 nonzeros.
Reduced MIP has 8760 binaries, 0 generals, 0 SOSs, and 0 indicators.
Presolve time = 0.04 sec. (34.59 ticks)
Probing time = 0.01 sec. (4.14 ticks)
Tried aggregator 1 time.
Detecting symmetries...
Reduced MIP has 3509 rows, 8760 columns, and 71568 nonzeros.
Reduced MIP has 8760 binaries, 0 generals, 0 SOSs, and 0 indicators.
Presolve time = 0.05 sec. (43.76 ticks)
Probing time = 0.01 sec. (4.14 ticks)
Clique table members: 2618.
MIP emphasis: balance optimality and feasibility.
MIP search method: dynamic search.
Parallel mode: none, using 1 thread.
Root relaxation solution time = 0.39 sec. (331.74 ticks)

        Nodes                                         Cuts/
   Node  Left     Objective  IInf  Best Integer    Best Bound    ItCnt     Gap

      0     0        0.0000  1202                      0.0000     2786         
*     0+    0                            0.0000        0.0000             0.00%
      0     0        cutoff              0.0000        0.0000     2786    0.00%
Elapsed time = 2.93 sec. (2519.14 ticks, tree = 0.01 MB, solutions = 1)

Root node processing (before b&c):
  Real time             =    2.93 sec. (2519.41 ticks)
Sequential b&c:
  Real time             =    0.00 sec. (0.00 ticks)
                          ------------
Total (root+branch&cut) =    2.93 sec. (2519.41 ticks)
Version identifier: 22.1.0.0 | 2022-03-09 | 1a383f8ce
CPXPARAM_Threads                                 1
CPXPARAM_MIP_Strategy_VariableSelect             3
CPXPARAM_TimeLimit                               595.583908017
Tried aggregator 1 time.
MIP Presolve eliminated 15 rows and 0 columns.
Reduced MIP has 3757 rows, 9380 columns, and 76652 nonzeros.
Reduced MIP has 9380 binaries, 0 generals, 0 SOSs, and 0 indicators.
Presolve time = 0.05 sec. (36.92 ticks)
Probing time = 0.01 sec. (4.28 ticks)
Tried aggregator 1 time.
Detecting symmetries...
Reduced MIP has 3757 rows, 9380 columns, and 76652 nonzeros.
Reduced MIP has 9380 binaries, 0 generals, 0 SOSs, and 0 indicators.
Presolve time = 0.05 sec. (46.75 ticks)
Probing time = 0.01 sec. (4.28 ticks)
Clique table members: 2804.
MIP emphasis: balance optimality and feasibility.
MIP search method: dynamic search.
Parallel mode: none, using 1 thread.
Root relaxation solution time = 0.54 sec. (499.19 ticks)

        Nodes                                         Cuts/
   Node  Left     Objective  IInf  Best Integer    Best Bound    ItCnt     Gap

      0     0        0.0000  1403                      0.0000     3404         
*     0+    0                            0.0000        0.0000             0.00%
      0     0        cutoff              0.0000        0.0000     3404    0.00%
Elapsed time = 5.67 sec. (5001.99 ticks, tree = 0.01 MB, solutions = 1)

Root node processing (before b&c):
  Real time             =    5.67 sec. (5002.28 ticks)
Sequential b&c:
  Real time             =    0.00 sec. (0.00 ticks)
                          ------------
Total (root+branch&cut) =    5.67 sec. (5002.28 ticks)
Version identifier: 22.1.0.0 | 2022-03-09 | 1a383f8ce
CPXPARAM_Threads                                 1
CPXPARAM_MIP_Strategy_VariableSelect             3
CPXPARAM_TimeLimit                               589.86703197099996
Tried aggregator 1 time.
MIP Presolve eliminated 15 rows and 0 columns.
Reduced MIP has 3885 rows, 9700 columns, and 79276 nonzeros.
Reduced MIP has 9700 binaries, 0 generals, 0 SOSs, and 0 indicators.
Presolve time = 0.05 sec. (38.24 ticks)
Probing time = 0.01 sec. (4.35 ticks)
Tried aggregator 1 time.
Detecting symmetries...
Reduced MIP has 3885 rows, 9700 columns, and 79276 nonzeros.
Reduced MIP has 9700 binaries, 0 generals, 0 SOSs, and 0 indicators.
Presolve time = 0.05 sec. (48.41 ticks)
Probing time = 0.01 sec. (4.35 ticks)
Clique table members: 2900.
MIP emphasis: balance optimality and feasibility.
MIP search method: dynamic search.
Parallel mode: none, using 1 thread.
Root relaxation solution time = 1.11 sec. (1014.54 ticks)

        Nodes                                         Cuts/
   Node  Left     Objective  IInf  Best Integer    Best Bound    ItCnt     Gap

      0     0        0.0000  1820                      0.0000     4806         
      0     2        0.0000    55                      0.0000     4806         
Elapsed time = 16.59 sec. (14888.69 ticks, tree = 0.01 MB, solutions = 0)
      1     3        0.0000   109                      0.0000    19172         
      2     4        0.0000    99                      0.0000    19958         
      3     5        0.0000    66                      0.0000    20281         
      4     6        0.0000   206                      0.0000    22413         
      5     7        0.0000    68                      0.0000    22425         
      6     8        0.0000   415                      0.0000    25693         
      7     9        0.0000   224                      0.0000    31031         
      8    10        0.0000   214                      0.0000    31112         
      9    11        0.0000   243                      0.0000    32607         
     11    13        0.0000   242                      0.0000    33537         
Elapsed time = 29.25 sec. (26664.71 ticks, tree = 0.10 MB, solutions = 0)
     14    16        0.0000   243                      0.0000    34864         
     16    18        0.0000   449                      0.0000    37883         
     19    21        0.0000   243                      0.0000    42022         
     21    23        0.0000   257                      0.0000    43661         
     25    27        0.0000   252                      0.0000    47020         
     29    31        0.0000   266                      0.0000    50072         
     32    34        0.0000   351                      0.0000    53594         
     36    38        0.0000   259                      0.0000    56347         
     40    42        0.0000   267                      0.0000    58969         
     43    45        0.0000   294                      0.0000    62787         
Elapsed time = 43.44 sec. (38919.80 ticks, tree = 0.21 MB, solutions = 0)
     47    49        0.0000   377                      0.0000    65912         
     50    52        0.0000   405                      0.0000    68156         
     53    55        0.0000   407                      0.0000    68956         
     57    59        0.0000   417                      0.0000    70790         
     60    62        0.0000   497                      0.0000    72741         
     64    66        0.0000   474                      0.0000    75091         
     68    70        0.0000   457                      0.0000    78476         
     72    74        0.0000   418                      0.0000    81321         
     76    78        0.0000   405                      0.0000    83909         
     80    82        0.0000   425                      0.0000    86892         
Elapsed time = 59.64 sec. (53274.67 ticks, tree = 0.36 MB, solutions = 0)
     84    86        0.0000   427                      0.0000    89680         
     88    90        0.0000   410                      0.0000    92587         
     92    94        0.0000   476                      0.0000    95584         
     96    98        0.0000   438                      0.0000    97715         
    100   102        0.0000   460                      0.0000   100689         
    104   106        0.0000   458                      0.0000   104066         
    108   110        0.0000   482                      0.0000   106477         
    112   114        0.0000   477                      0.0000   108614         
    116   118        0.0000   482                      0.0000   110536         
    120   122        0.0000   504                      0.0000   112660         
Elapsed time = 71.86 sec. (64211.93 ticks, tree = 0.52 MB, solutions = 0)
    124   126        0.0000   481                      0.0000   118076         
    129   131        0.0000   439                      0.0000   119824         
    133   135        0.0000   456                      0.0000   125014         
    137   139        0.0000   500                      0.0000   130241         
    141   143        0.0000   442                      0.0000   132149         
    145   147        0.0000   406                      0.0000   134262         
    149   151        0.0000   491                      0.0000   138334         
    153   155        0.0000   395                      0.0000   140839         
    157   159        0.0000   408                      0.0000   145214         
    160   162        0.0000   423                      0.0000   148405         
Elapsed time = 85.70 sec. (76315.54 ticks, tree = 0.69 MB, solutions = 0)
    164   166        0.0000   594                      0.0000   151779         
    168   170        0.0000   460                      0.0000   154735         
    172   174        0.0000   435                      0.0000   158741         
    174   176        0.0000   433                      0.0000   161127         
    178   180        0.0000   531                      0.0000   166297         
    180   182        0.0000   607                      0.0000   171419         
    183   185        0.0000   516                      0.0000   176523         
    187   189        0.0000   345                      0.0000   179789         
    191   193        0.0000   376                      0.0000   182779         
    194   196        0.0000   590                      0.0000   189009         
Elapsed time = 99.48 sec. (88163.58 ticks, tree = 0.89 MB, solutions = 0)
    196   198        0.0000   320                      0.0000   191295         
    199   201        0.0000   320                      0.0000   192626         
    202   204        0.0000   326                      0.0000   195856         
    206   208        0.0000   312                      0.0000   199308         
    209   211        0.0000   532                      0.0000   203737         
    213   215        0.0000   331                      0.0000   204295         
    216   218        0.0000   315                      0.0000   206702         
    219   221        0.0000   362                      0.0000   211703         
    223   225        0.0000   350                      0.0000   214826         
    227   229        0.0000   285                      0.0000   215985         
Elapsed time = 112.32 sec. (99040.94 ticks, tree = 1.03 MB, solutions = 0)
    231   233        0.0000   290                      0.0000   220829         
    235   237        0.0000   367                      0.0000   227006         
    239   241        0.0000   304                      0.0000   229134         
    242   244        0.0000   294                      0.0000   230278         
    247   249        0.0000   268                      0.0000   231801         
    252   254        0.0000   232                      0.0000   233944         
    256   258        0.0000   239                      0.0000   238770         
    260   262        0.0000   202                      0.0000   241725         
    265   267        0.0000   239                      0.0000   245779         
    270   272        0.0000   188                      0.0000   247624         
Elapsed time = 125.62 sec. (110400.91 ticks, tree = 1.22 MB, solutions = 0)
    275   277        0.0000   221                      0.0000   251491         
    280   282        0.0000   127                      0.0000   254635         
    285   287        0.0000    78                      0.0000   259654         
    290   292        0.0000   106                      0.0000   264635         
    295   297        0.0000    32                      0.0000   268658         
    299   301        0.0000   429                      0.0000   276120         
    303   305        0.0000    30                      0.0000   280701         
    309   311        0.0000    28                      0.0000   283865         
    315   317        0.0000   422                      0.0000   293970         
    318   320        0.0000    44                      0.0000   303319         
Elapsed time = 138.56 sec. (121648.20 ticks, tree = 1.43 MB, solutions = 0)
    320   322        0.0000    34                      0.0000   309575         
    323   325        0.0000   372                      0.0000   320026         
    326   328        0.0000    73                      0.0000   325733         
    330   332        0.0000   137                      0.0000   334192         
    333   335        0.0000   171                      0.0000   341501         
    337   339        0.0000   100                      0.0000   355087         
    340   342        0.0000    65                      0.0000   357224         
    343   345        0.0000    59                      0.0000   364177         
    346   348        0.0000   105                      0.0000   371769         
    361   363        0.0000   134                      0.0000   387258         
Elapsed time = 157.09 sec. (136589.36 ticks, tree = 1.60 MB, solutions = 0)
    379   381        0.0000   162                      0.0000   402226         
    397   399        0.0000   143                      0.0000   425364         
    412   414        0.0000    70                      0.0000   452796         
    432   434        0.0000    37                      0.0000   470302         
    447   449        0.0000   302                      0.0000   497678         
    462   464        0.0000   245                      0.0000   531318         

Performing restart 1

Repeating presolve.
Tried aggregator 1 time.
Reduced MIP has 3885 rows, 9700 columns, and 79276 nonzeros.
Reduced MIP has 9700 binaries, 0 generals, 0 SOSs, and 0 indicators.
Presolve time = 0.05 sec. (37.83 ticks)
Tried aggregator 1 time.
Reduced MIP has 3885 rows, 9700 columns, and 79276 nonzeros.
Reduced MIP has 9700 binaries, 0 generals, 0 SOSs, and 0 indicators.
Presolve time = 0.06 sec. (49.84 ticks)
Represolve time = 0.20 sec. (146.02 ticks)
    474     0        0.0000    94                  Cliques: 1   551835         
    474     0        0.0000   320                    Cuts: 74   552589         
*   474+    0                            0.0000        0.0000             0.00%
    474     0        cutoff              0.0000        0.0000   552589    0.00%

Clique cuts applied:  2
Zero-half cuts applied:  3
Gomory fractional cuts applied:  1

Root node processing (before b&c):
  Real time             =   16.53 sec. (14853.26 ticks)
Sequential b&c:
  Real time             =  194.27 sec. (168812.22 ticks)
                          ------------
Total (root+branch&cut) =  210.80 sec. (183665.49 ticks)
Version identifier: 22.1.0.0 | 2022-03-09 | 1a383f8ce
CPXPARAM_Threads                                 1
CPXPARAM_MIP_Strategy_VariableSelect             3
CPXPARAM_TimeLimit                               379.01333109400002
Tried aggregator 1 time.
MIP Presolve eliminated 15 rows and 0 columns.
Reduced MIP has 3949 rows, 9860 columns, and 80588 nonzeros.
Reduced MIP has 9860 binaries, 0 generals, 0 SOSs, and 0 indicators.
Presolve time = 0.05 sec. (38.78 ticks)
Probing time = 0.01 sec. (4.38 ticks)
Tried aggregator 1 time.
Detecting symmetries...
Reduced MIP has 3949 rows, 9860 columns, and 80588 nonzeros.
Reduced MIP has 9860 binaries, 0 generals, 0 SOSs, and 0 indicators.
Presolve time = 0.06 sec. (49.12 ticks)
Probing time = 0.01 sec. (4.38 ticks)
Clique table members: 2948.
MIP emphasis: balance optimality and feasibility.
MIP search method: dynamic search.
Parallel mode: none, using 1 thread.
Root relaxation solution time = 2.06 sec. (2014.34 ticks)

        Nodes                                         Cuts/
   Node  Left     Objective  IInf  Best Integer    Best Bound    ItCnt     Gap

      0     0        0.0000  2032                      0.0000     6674         
      0     0        0.0000   343                     Cuts: 6     9641         
*     0+    0                            0.0000        0.0000             0.00%
      0     0        cutoff              0.0000        0.0000     9641    0.00%
Elapsed time = 34.07 sec. (33990.22 ticks, tree = 0.01 MB, solutions = 1)

Clique cuts applied:  4

Root node processing (before b&c):
  Real time             =   34.07 sec. (33990.52 ticks)
Sequential b&c:
  Real time             =    0.00 sec. (0.00 ticks)
                          ------------
Total (root+branch&cut) =   34.07 sec. (33990.52 ticks)
Version identifier: 22.1.0.0 | 2022-03-09 | 1a383f8ce
CPXPARAM_Threads                                 1
CPXPARAM_MIP_Strategy_VariableSelect             3
CPXPARAM_TimeLimit                               344.89077383599999
Tried aggregator 1 time.
MIP Presolve eliminated 15 rows and 0 columns.
Reduced MIP has 3981 rows, 9940 columns, and 81244 nonzeros.
Reduced MIP has 9940 binaries, 0 generals, 0 SOSs, and 0 indicators.
Presolve time = 0.05 sec. (39.17 ticks)
Probing time = 0.01 sec. (4.40 ticks)
Tried aggregator 1 time.
Detecting symmetries...
Reduced MIP has 3981 rows, 9940 columns, and 81244 nonzeros.
Reduced MIP has 9940 binaries, 0 generals, 0 SOSs, and 0 indicators.
Presolve time = 0.06 sec. (49.59 ticks)
Probing time = 0.01 sec. (4.40 ticks)
Clique table members: 2972.
MIP emphasis: balance optimality and feasibility.
MIP search method: dynamic search.
Parallel mode: none, using 1 thread.
Root relaxation solution time = 2.31 sec. (2242.31 ticks)

        Nodes                                         Cuts/
   Node  Left     Objective  IInf  Best Integer    Best Bound    ItCnt     Gap

      0     0        0.0000  2063                      0.0000     7206         
      0     0        0.0000   457                 Cliques: 24     9417         
      0     0        0.0000    61                     Cuts: 3    10039         
      0     0        0.0000   267                    Cuts: 18    11138         
*     0+    0                            0.0000        0.0000             0.00%
      0     0        cutoff              0.0000        0.0000    11138    0.00%
Elapsed time = 37.19 sec. (33508.12 ticks, tree = 0.01 MB, solutions = 1)

Clique cuts applied:  29
Zero-half cuts applied:  6

Root node processing (before b&c):
  Real time             =   37.19 sec. (33508.42 ticks)
Sequential b&c:
  Real time             =    0.00 sec. (0.00 ticks)
                          ------------
Total (root+branch&cut) =   37.19 sec. (33508.42 ticks)
Version identifier: 22.1.0.0 | 2022-03-09 | 1a383f8ce
CPXPARAM_Threads                                 1
CPXPARAM_MIP_Strategy_VariableSelect             3
CPXPARAM_TimeLimit                               307.65203068699998
Tried aggregator 1 time.
MIP Presolve eliminated 15 rows and 0 columns.
Reduced MIP has 3997 rows, 9980 columns, and 81572 nonzeros.
Reduced MIP has 9980 binaries, 0 generals, 0 SOSs, and 0 indicators.
Presolve time = 0.05 sec. (39.25 ticks)
Probing time = 0.01 sec. (4.40 ticks)
Tried aggregator 1 time.
Detecting symmetries...
Reduced MIP has 3997 rows, 9980 columns, and 81572 nonzeros.
Reduced MIP has 9980 binaries, 0 generals, 0 SOSs, and 0 indicators.
Presolve time = 0.06 sec. (49.71 ticks)
Probing time = 0.01 sec. (4.40 ticks)
Clique table members: 2984.
MIP emphasis: balance optimality and feasibility.
MIP search method: dynamic search.
Parallel mode: none, using 1 thread.
Root relaxation solution time = 2.62 sec. (2546.98 ticks)

        Nodes                                         Cuts/
   Node  Left     Objective  IInf  Best Integer    Best Bound    ItCnt     Gap

      0     0        0.0000  2082                      0.0000     7866         
      0     0        0.0000   149                  Cliques: 6    10367         
*     0+    0                            0.0000        0.0000             0.00%
      0     0        cutoff              0.0000        0.0000    10367    0.00%
Elapsed time = 22.34 sec. (20546.45 ticks, tree = 0.01 MB, solutions = 1)

Clique cuts applied:  6

Root node processing (before b&c):
  Real time             =   22.34 sec. (20546.75 ticks)
Sequential b&c:
  Real time             =    0.00 sec. (0.00 ticks)
                          ------------
Total (root+branch&cut) =   22.34 sec. (20546.75 ticks)
Version identifier: 22.1.0.0 | 2022-03-09 | 1a383f8ce
CPXPARAM_Threads                                 1
CPXPARAM_MIP_Strategy_VariableSelect             3
CPXPARAM_TimeLimit                               285.26043532799997
Tried aggregator 1 time.
MIP Presolve eliminated 15 rows and 0 columns.
Reduced MIP has 4005 rows, 10000 columns, and 81736 nonzeros.
Reduced MIP has 10000 binaries, 0 generals, 0 SOSs, and 0 indicators.
Presolve time = 0.05 sec. (39.41 ticks)
Probing time = 0.01 sec. (4.41 ticks)
Tried aggregator 1 time.
Detecting symmetries...
Reduced MIP has 4005 rows, 10000 columns, and 81736 nonzeros.
Reduced MIP has 10000 binaries, 0 generals, 0 SOSs, and 0 indicators.
Presolve time = 0.06 sec. (49.90 ticks)
Probing time = 0.01 sec. (4.41 ticks)
Clique table members: 2990.
MIP emphasis: balance optimality and feasibility.
MIP search method: dynamic search.
Parallel mode: none, using 1 thread.
Root relaxation solution time = 2.80 sec. (2699.48 ticks)

        Nodes                                         Cuts/
   Node  Left     Objective  IInf  Best Integer    Best Bound    ItCnt     Gap

      0     0        0.0000  2126                      0.0000     8157         
      0     0        0.0000   298                    Cuts: 24     9292         
      0     0        0.0000   523                   Cuts: 130    13264         
      0     2        0.0000     8                      0.0000    13264         
Elapsed time = 70.49 sec. (69812.18 ticks, tree = 0.01 MB, solutions = 0)
*     1     1      integral     0        0.0000        0.0000    20403    0.00%
      1     0        0.0000     0        0.0000        0.0000    20403    0.00%

Clique cuts applied:  53
Zero-half cuts applied:  14
Lift and project cuts applied:  2
Gomory fractional cuts applied:  1

Root node processing (before b&c):
  Real time             =   70.43 sec. (69775.35 ticks)
Sequential b&c:
  Real time             =    2.90 sec. (2774.85 ticks)
                          ------------
Total (root+branch&cut) =   73.33 sec. (72550.20 ticks)
Primal:	500
Dual:	500
Status:	Optimal
Time:	388.111
Sequence:
	17
	14
	3
	9
	0
	14
	1
	12
	16
	1
	12
	14
	1
	12
	16
	19
	12
	16
	19
	12
	14
	19
	12
	16
	19
	12
	14
	19
	12
	7
	19
	12
	16
	19
	12
	7
	1
	12
	16
	19
	12
	14
	1
	12
	14
	1
	12
	16
	19
	12
	16
	19
	12
	16
	19
	0
	7
	9
	13
	11
	9
	6
	11
	9
	4
	11
	9
	6
	14
	8
	5
	13
	9
	11
	13
	9
	11
	6
	9
	11
	3
	1
	12
	7
	1
	15
	11
	1
	15
	11
	1
	15
	0
	10
	15
	0
	10
	2
	0
	10
	2
	0
	19
	4
	11
	9
	13
	11
	9
	4
	11
	1
	15
	11
	1
	15
	11
	1
	15
	0
	10
	15
	0
	10
	2
	4
	18
	2
	3
	18
	2
	3
	18
	2
	4
	18
	2
	4
	18
	2
	4
	10
	12
	5
	1
	11
	15
	1
	11
	15
	1
	16
	12
	19
	14
	12
	1
	6
	12
	10
	13
	0
	9
	7
	0
	9
	7
	0
	2
	10
	0
	2
	3
	18
	2
	3
	18
	2
	5
	18
	2
	5
	18
	3
	5
	9
	11
	4
	1
	0
	15
	10
	0
	6
	10
	12
	13
	1
	11
	3
	9
	4
	11
	9
	13
	11
	9
	3
	16
	8
	4
	5
	18
	2
	4
	18
	2
	3
	18
	2
	4
	18
	2
	5
	10
	12
	6
	14
	17
	13
	14
	17
	6
	4
	8
	14
	6
	17
	7
	6
	8
	16
	13
	17
	14
	13
	17
	7
	6
	8
	7
	13
	8
	7
	13
	8
	7
	13
	8
	14
	13
	8
	7
	6
	17
	16
	13
	8
	16
	13
	8
	3
	7
	8
	3
	7
	17
	5
	7
	8
	4
	7
	8
	6
	7
	8
	5
	7
	17
	13
	14
	17
	6
	7
	8
	4
	14
	17
	13
	7
	8
	3
	16
	8
	5
	7
	17
	5
	14
	8
	3
	16
	8
	4
	5
	18
	2
	4
	18
	2
	4
	18
	5
	2
	18
	3
	3
	17
	7
	4
	17
	5
	5
	18
	2
	4
	18
	2
	3
	19
	12
	4
	10
	15
	0
	10
	15
	0
	10
	15
	0
	10
	15
	0
	10
	15
	0
	10
	15
	0
	1
	7
	5
	8
	7
	13
	8
	16
	13
	17
	16
	4
	17
	7
	4
	17
	7
	13
	8
	16
	3
	8
	7
	6
	8
	16
	6
	17
	16
	4
	12
	10
	4
	13
	8
	7
	6
	8
	14
	3
	17
	7
	13
	9
	11
	13
	9
	11
	13
	9
	0
	16
	9
	0
	13
	10
	0
	15
	10
	0
	2
	19
	11
	2
	1
	11
	15
	1
	11
	15
	1
	16
	12
	1
	14
	12
	19
	7
	12
	19
	16
	12
	19
	14
	12
	19
	14
	5
	17
	14
	13
	17
	7
	3
	8
	7
	5
	17
	16
	4
	8
	16
	4
	8
	14
	4
	17
	7
	6
	17
	14
	5
	8
	7
	5
	17
	14
	4
	8
	13
	16
	8
	6
	14
	8
	13
	16
	17
	3
	16
	9
	5
	11
	9
	13
	11
	9
	5
	11
	9
